# Random positions equilibration

dimension 3
boundary p p p
units metal
atom_style atomic
read_data crystalline_atoms.data


pair_style   meam
pair_coeff   * * library.meam AlS AlSiMgCuFe.meam AlS



dump 1 all custom 100 dump.crystalline.bin id x y z vx vy vz
timestep 0.010
minimize 0.0 1.0e-8 10000 100000
