# Random positions minimization

dimension 3
boundary p p p
units metal
atom_style atomic
read_data random.data


pair_style   meam
pair_coeff * * ../potentials/library.meam AlS ../potentials/AlSiMgCuFe.meam AlS


dump 1 all custom 100 dump.random.bin id x y z vx vy vz
timestep 0.010
minimize 0.0 1.0e-8 10000 100000